Problem:    Transporte3Rios
Rows:       28
Columns:    21
Non-zeros:  54
Status:     OPTIMAL
Objective:  Z = 715 (MAXimum)

   No.   Row name   St   Activity     Lower bound   Upper bound    Marginal
------ ------------ -- ------------- ------------- ------------- -------------
     1 Z            B            715                             
     2 cantMaxdeIaJ[1,1]
                    NU           130                         130         < eps
     3 cantMaxdeIaJ[1,2]
                    NU           115                         115         < eps
     4 cantMaxdeIaJ[1,3]
                    NU             0                          -0             1 
     5 cantMaxdeIaJ[2,1]
                    B             65                          70 
     6 cantMaxdeIaJ[2,2]
                    NU            90                          90         < eps
     7 cantMaxdeIaJ[2,3]
                    NU           110                         110             1 
     8 cantMaxdeIaJ[3,1]
                    NU             0                          -0         < eps
     9 cantMaxdeIaJ[3,2]
                    B             85                         140 
    10 cantMaxdeIaJ[3,3]
                    NU           120                         120             1 
    11 cantMaxdeJaK[1,1]
                    NU           110                         110         < eps
    12 cantMaxdeJaK[1,2]
                    NU            85                          85             1 
    13 cantMaxdeJaK[1,3]
                    NU             0                          -0             1 
    14 cantMaxdeJaK[2,1]
                    B            110                         130 
    15 cantMaxdeJaK[2,2]
                    NU            95                          95             1 
    16 cantMaxdeJaK[2,3]
                    NU            85                          85             1 
    17 cantMaxdeJaK[3,1]
                    B              0                          -0 
    18 cantMaxdeJaK[3,2]
                    B             75                         130 
    19 cantMaxdeJaK[3,3]
                    B            155                         160 
    20 cantMaxdeKaT[1,1]
                    NU           220                         220             1 
    21 cantMaxdeKaT[2,1]
                    B            255                         330 
    22 cantMaxdeKaT[3,1]
                    NU           240                         240         < eps
    23 noAlmacenamientoJ[1]
                    NS             0            -0             =         < eps
    24 noAlmacenamientoJ[2]
                    NS             0            -0             =         < eps
    25 noAlmacenamientoJ[3]
                    NS             0            -0             =            -1 
    26 noAlmacenamientoK[1]
                    NS             0            -0             =         < eps
    27 noAlmacenamientoK[2]
                    NS             0            -0             =            -1 
    28 noAlmacenamientoK[3]
                    NS             0            -0             =            -1 

   No. Column name  St   Activity     Lower bound   Upper bound    Marginal
------ ------------ -- ------------- ------------- ------------- -------------
     1 X[1,1]       B            130             0               
     2 X[1,2]       B            115             0               
     3 X[1,3]       B              0             0               
     4 X[2,1]       B             65             0               
     5 X[2,2]       B             90             0               
     6 X[2,3]       B            110             0               
     7 X[3,1]       B              0             0               
     8 X[3,2]       B             85             0               
     9 X[3,3]       B            120             0               
    10 Y[1,1]       B            110             0               
    11 Y[1,2]       B             85             0               
    12 Y[1,3]       B              0             0               
    13 Y[2,1]       B            110             0               
    14 Y[2,2]       B             95             0               
    15 Y[2,3]       B             85             0               
    16 Y[3,1]       NL             0             0                          -1 
    17 Y[3,2]       B             75             0               
    18 Y[3,3]       B            155             0               
    19 W[1,1]       B            220             0               
    20 W[2,1]       B            255             0               
    21 W[3,1]       B            240             0               

Karush-Kuhn-Tucker optimality conditions:

KKT.PE: max.abs.err = 0.00e+00 on row 0
        max.rel.err = 0.00e+00 on row 0
        High quality

KKT.PB: max.abs.err = 0.00e+00 on row 0
        max.rel.err = 0.00e+00 on row 0
        High quality

KKT.DE: max.abs.err = 0.00e+00 on column 0
        max.rel.err = 0.00e+00 on column 0
        High quality

KKT.DB: max.abs.err = 0.00e+00 on row 0
        max.rel.err = 0.00e+00 on row 0
        High quality

End of output
